(set-logic HORN)
(set-info :source |
    Benchmark: C_VC
    Output by Princess (http://www.philipp.ruemmer.org/princess.shtml)
|)
(set-info :status unknown)
(declare-fun inv_main16 (Int Int Int Int Int Int) Bool)
(declare-fun inv_main23 (Int Int Int Int Int Int) Bool)
(declare-fun inv_main26 (Int Int Int Int Int Int) Bool)
(declare-fun inv_main27 (Int Int Int Int Int Int) Bool)
(declare-fun inv_main29 (Int Int Int Int Int Int) Bool)
(declare-fun inv_main3 (Int Int Int Int Int Int) Bool)
(declare-fun inv_main30 (Int Int Int Int Int Int) Bool)
(declare-fun inv_main6 (Int Int Int Int Int Int) Bool)
(assert (forall ((var0 Int)) (forall ((var1 Int)) (forall ((var2 Int)) (forall ((var3 Int)) (forall ((var4 Int)) (inv_main3 0 var2 var0 var1 var4 var3 ) ) ) ) ) ) )
(assert (forall ((var0 Int)) (forall ((var1 Int)) (forall ((var2 Int)) (forall ((var3 Int)) (forall ((var4 Int)) (forall ((var5 Int)) (or (not (and (inv_main26 var1 var4 var3 var5 var0 var2 ) (<= 0 (+ var4 (* (- 1) var0 ) ) ) ) ) (inv_main27 var1 var4 var3 var5 var0 var2 ) ) ) ) ) ) ) ) )
(assert (forall ((var0 Int)) (forall ((var1 Int)) (forall ((var2 Int)) (forall ((var3 Int)) (forall ((var4 Int)) (forall ((var5 Int)) (or (not (inv_main27 var1 var4 var3 var5 var0 var2 ) ) (inv_main29 var1 var4 var3 var5 var0 var2 ) ) ) ) ) ) ) ) )
(assert (forall ((var0 Int)) (forall ((var1 Int)) (forall ((var2 Int)) (forall ((var3 Int)) (forall ((var4 Int)) (forall ((var5 Int)) (or (not (and (inv_main3 var1 var4 var3 var5 var0 var2 ) (<= 0 (+ var2 (- 1) ) ) ) ) (inv_main6 var1 var4 var4 var5 var0 var2 ) ) ) ) ) ) ) ) )
(assert (forall ((var0 Int)) (forall ((var1 Int)) (forall ((var2 Int)) (forall ((var3 Int)) (forall ((var4 Int)) (forall ((var5 Int)) (or (not (and (inv_main6 var1 var4 var3 var5 var0 var2 ) (and (not (= var1 0 ) ) (and (<= 0 (+ (+ var4 (* (- 1) var3 ) ) (- 1) ) ) (<= 0 (+ var3 (- 1) ) ) ) ) ) ) (inv_main16 var1 var4 var3 var2 var0 var2 ) ) ) ) ) ) ) ) )
(assert (forall ((var0 Int)) (forall ((var1 Int)) (forall ((var2 Int)) (forall ((var3 Int)) (forall ((var4 Int)) (forall ((var5 Int)) (or (not (and (inv_main16 var1 var4 var3 var5 var0 var2 ) (<= 0 (+ var4 (* (- 1) var5 ) ) ) ) ) (inv_main16 var1 var4 var3 (+ var5 1 ) var0 var2 ) ) ) ) ) ) ) ) )
(assert (forall ((var0 Int)) (forall ((var1 Int)) (forall ((var2 Int)) (forall ((var3 Int)) (forall ((var4 Int)) (forall ((var5 Int)) (or (not (and (inv_main23 var1 var4 var3 var5 var0 var2 ) (not (<= 0 (+ var4 (* (- 1) var0 ) ) ) ) ) ) (inv_main26 var1 var4 var3 var5 var2 var2 ) ) ) ) ) ) ) ) )
(assert (forall ((var0 Int)) (forall ((var1 Int)) (forall ((var2 Int)) (forall ((var3 Int)) (forall ((var4 Int)) (forall ((var5 Int)) (or (not (and (inv_main23 var1 var4 var3 var5 var0 var2 ) (<= 0 (+ var4 (* (- 1) var0 ) ) ) ) ) (inv_main23 var1 var4 var3 var5 (+ var0 1 ) var2 ) ) ) ) ) ) ) ) )
(assert (forall ((var0 Int)) (forall ((var1 Int)) (forall ((var2 Int)) (forall ((var3 Int)) (forall ((var4 Int)) (forall ((var5 Int)) (or (not (inv_main29 var1 var4 var3 var5 var0 var2 ) ) (inv_main26 var1 var4 var3 var5 (+ var0 1 ) var2 ) ) ) ) ) ) ) ) )
(assert (forall ((var0 Int)) (forall ((var1 Int)) (forall ((var2 Int)) (forall ((var3 Int)) (forall ((var4 Int)) (forall ((var5 Int)) (or (not (and (inv_main30 var1 var4 var3 var5 var0 var2 ) (<= 0 (+ var4 (* (- 1) var5 ) ) ) ) ) (inv_main30 var1 var4 var3 (+ var5 1 ) var0 var2 ) ) ) ) ) ) ) ) )
(assert (forall ((var0 Int)) (forall ((var1 Int)) (forall ((var2 Int)) (forall ((var3 Int)) (forall ((var4 Int)) (forall ((var5 Int)) (or (not (and (inv_main16 var1 var4 var3 var5 var0 var2 ) (and (<= 0 (+ var4 (* (- 1) var2 ) ) ) (not (<= 0 (+ var4 (* (- 1) var5 ) ) ) ) ) ) ) (inv_main23 var1 var4 var3 var2 var2 var2 ) ) ) ) ) ) ) ) )
(assert (forall ((var0 Int)) (forall ((var1 Int)) (forall ((var2 Int)) (forall ((var3 Int)) (forall ((var4 Int)) (forall ((var5 Int)) (or (not (and (inv_main26 var1 var4 var3 var5 var0 var2 ) (and (<= 0 (+ var4 (* (- 1) (+ var5 1 ) ) ) ) (not (<= 0 (+ var4 (* (- 1) var0 ) ) ) ) ) ) ) (inv_main23 var1 var4 var3 (+ var5 1 ) var2 var2 ) ) ) ) ) ) ) ) )
(assert (forall ((var0 Int)) (forall ((var1 Int)) (forall ((var2 Int)) (forall ((var3 Int)) (forall ((var4 Int)) (forall ((var5 Int)) (or (not (and (inv_main6 var1 var4 var3 var5 var0 var2 ) (and (= var1 0 ) (and (<= 0 (+ (+ var4 (* (- 1) var3 ) ) (- 1) ) ) (<= 0 (+ var3 (- 1) ) ) ) ) ) ) (inv_main30 var1 var4 var3 var2 var0 var2 ) ) ) ) ) ) ) ) )
(assert (forall ((var0 Int)) (forall ((var1 Int)) (forall ((var2 Int)) (forall ((var3 Int)) (forall ((var4 Int)) (forall ((var5 Int)) (or (not (and (inv_main16 var1 var4 var3 var5 var0 var2 ) (and (not (<= 0 (+ var4 (* (- 1) var2 ) ) ) ) (not (<= 0 (+ var4 (* (- 1) var5 ) ) ) ) ) ) ) (inv_main30 var1 var4 var3 var2 var0 var2 ) ) ) ) ) ) ) ) )
(assert (forall ((var0 Int)) (forall ((var1 Int)) (forall ((var2 Int)) (forall ((var3 Int)) (forall ((var4 Int)) (forall ((var5 Int)) (or (not (and (inv_main26 var1 var4 var3 var5 var0 var2 ) (and (not (<= 0 (+ var4 (* (- 1) (+ var5 1 ) ) ) ) ) (not (<= 0 (+ var4 (* (- 1) var0 ) ) ) ) ) ) ) (inv_main30 var1 var4 var3 var2 var0 var2 ) ) ) ) ) ) ) ) )
(assert (forall ((var0 Int)) (forall ((var1 Int)) (forall ((var2 Int)) (forall ((var3 Int)) (forall ((var4 Int)) (forall ((var5 Int)) (or (not (and (inv_main30 var1 var4 var3 var5 var0 var2 ) (not (<= 0 (+ var4 (* (- 1) var5 ) ) ) ) ) ) (inv_main6 var1 var4 (+ var3 (- 1) ) var5 var0 var3 ) ) ) ) ) ) ) ) )
(assert (forall ((var0 Int)) (forall ((var1 Int)) (forall ((var2 Int)) (forall ((var3 Int)) (forall ((var4 Int)) (forall ((var5 Int)) (or (not (and (inv_main6 var1 var4 var3 var5 var0 var2 ) (and (not (<= 0 (+ (+ var4 (* (- 1) var3 ) ) (- 1) ) ) ) (<= 0 (+ var3 (- 1) ) ) ) ) ) (inv_main6 var1 var4 (+ var3 (- 1) ) var5 var0 var3 ) ) ) ) ) ) ) ) )
(assert (forall ((var0 Int)) (forall ((var1 Int)) (forall ((var2 Int)) (forall ((var3 Int)) (forall ((var4 Int)) (forall ((var5 Int)) (not (and (inv_main27 var1 var4 var3 var5 var0 var2 ) (not (<= 0 (+ var3 (- 1) ) ) ) ) ) ) ) ) ) ) ) )
(assert (forall ((var0 Int)) (forall ((var1 Int)) (forall ((var2 Int)) (forall ((var3 Int)) (forall ((var4 Int)) (forall ((var5 Int)) (not (and (inv_main29 var1 var4 var3 var5 var0 var2 ) (not (<= 0 (+ var4 (* (- 1) var3 ) ) ) ) ) ) ) ) ) ) ) ) )
(check-sat)
